p tdp 50 50
1 4
1 27
2 18
2 28
3 7
3 10
4 33
5 23
5 40
6 16
6 17
7 26
8 21
8 25
9 19
9 32
10 41
11 17
11 30
12 14
12 43
13 15
13 48
14 38
15 19
16 50
18 24
20 31
20 39
21 34
22 23
22 42
24 48
25 29
26 31
27 32
28 29
30 41
33 46
34 49
35 44
35 47
36 42
36 50
37 39
37 44
38 45
40 43
45 46
47 49
